Maximize
 0
Subject To
 epc_0!1: +2.0440869265225388 y_1!1_2!1 +5.564002794384322 y_1!2_2!1 +44.47229767826036 y_1!3_2!1 -74.19174279016698 y_1!4_2!1 -59.54046085993985 y_1!1_2!2 -37.049679929842426 y_1!2_2!2 +74.01254281170807 y_1!3_2!2 +68.16559888144445 y_1!4_2!2 +99.3501020682184 y_1!1_2!3 -22.768323295678442 y_1!2_2!3 +55.11113366901063 y_1!3_2!3 +47.447510747705735 y_1!4_2!3 +80.82099258671934 y_1!1_2!4 +16.732825912492814 y_1!2_2!4 -12.04014270764695 y_1!3_2!4 -37.74856414218419 y_1!4_2!4 + lambda_0!1 - mu_0 = 0
 epc_0!2: -50.44217056944438 y_1!1_2!1 -62.184889646188424 y_1!2_2!1 +10.280395951874752 y_1!3_2!1 -64.37740029080308 y_1!4_2!1 +20.702174012475894 y_1!1_2!2 -72.62618213788505 y_1!2_2!2 +97.38570600128386 y_1!3_2!2 +37.29778523372204 y_1!4_2!2 +79.59964825438527 y_1!1_2!3 +19.216168459167847 y_1!2_2!3 +26.346910946293093 y_1!3_2!3 +57.09323884582932 y_1!4_2!3 +22.584739014016165 y_1!1_2!4 +35.32448145563902 y_1!2_2!4 -71.76961629428212 y_1!3_2!4 -62.642210611999104 y_1!4_2!4 + lambda_0!2 - mu_0 = 0
 epc_0!3: -89.81821046360297 y_1!1_2!1 +14.984065767978578 y_1!2_2!1 +79.62282028562163 y_1!3_2!1 +48.85784918086139 y_1!4_2!1 -56.271132465142635 y_1!1_2!2 +11.697767537135718 y_1!2_2!2 -52.93153152520902 y_1!3_2!2 -94.27387698943738 y_1!4_2!2 +88.43270259619635 y_1!1_2!3 -14.138597355213747 y_1!2_2!3 -33.752555862000435 y_1!3_2!3 -57.021579092814754 y_1!4_2!3 -15.35765641714157 y_1!1_2!4 -76.00288449518473 y_1!2_2!4 +85.02032944620436 y_1!3_2!4 -21.356353480110528 y_1!4_2!4 + lambda_0!3 - mu_0 = 0
 epc_0!4: -1.7900959551073043 y_1!1_2!1 -97.90013603315101 y_1!2_2!1 +65.44590127697498 y_1!3_2!1 -10.514655305844215 y_1!4_2!1 +99.43259322475438 y_1!1_2!2 +94.15465737317376 y_1!2_2!2 -84.76826804891317 y_1!3_2!2 +54.610429253588364 y_1!4_2!2 -31.309668557971946 y_1!1_2!3 -65.93277463871496 y_1!2_2!3 -33.71077336002999 y_1!3_2!3 +27.86480396155777 y_1!4_2!3 +75.3945235562432 y_1!1_2!4 -61.91884281192419 y_1!2_2!4 -18.99439262243021 y_1!3_2!4 -13.56107187140016 y_1!4_2!4 + lambda_0!4 - mu_0 = 0
 dc_0: x_0!1 + x_0!2 + x_0!3 + x_0!4 = 1
 bc_0!1: lambda_0!1 +297.6430460273432 x_0!1 <= 297.6430460273432
 bc_0!2: lambda_0!2 +297.6430460273432 x_0!2 <= 297.6430460273432
 bc_0!3: lambda_0!3 +297.6430460273432 x_0!3 <= 297.6430460273432
 bc_0!4: lambda_0!4 +297.6430460273432 x_0!4 <= 297.6430460273432
 sum_0!1: y_1!1_2!1 - x_1!1 - x_2!1 >= -1
 idk_0!1!1: y_1!1_2!1 - x_1!1 <= 0
 idk_0!1!2: y_1!1_2!1 - x_2!1 <= 0
 sum_0!2: y_1!2_2!1 - x_1!2 - x_2!1 >= -1
 idk_0!2!1: y_1!2_2!1 - x_1!2 <= 0
 idk_0!2!2: y_1!2_2!1 - x_2!1 <= 0
 sum_0!3: y_1!3_2!1 - x_1!3 - x_2!1 >= -1
 idk_0!3!1: y_1!3_2!1 - x_1!3 <= 0
 idk_0!3!2: y_1!3_2!1 - x_2!1 <= 0
 sum_0!4: y_1!4_2!1 - x_1!4 - x_2!1 >= -1
 idk_0!4!1: y_1!4_2!1 - x_1!4 <= 0
 idk_0!4!2: y_1!4_2!1 - x_2!1 <= 0
 sum_0!5: y_1!1_2!2 - x_1!1 - x_2!2 >= -1
 idk_0!5!1: y_1!1_2!2 - x_1!1 <= 0
 idk_0!5!2: y_1!1_2!2 - x_2!2 <= 0
 sum_0!6: y_1!2_2!2 - x_1!2 - x_2!2 >= -1
 idk_0!6!1: y_1!2_2!2 - x_1!2 <= 0
 idk_0!6!2: y_1!2_2!2 - x_2!2 <= 0
 sum_0!7: y_1!3_2!2 - x_1!3 - x_2!2 >= -1
 idk_0!7!1: y_1!3_2!2 - x_1!3 <= 0
 idk_0!7!2: y_1!3_2!2 - x_2!2 <= 0
 sum_0!8: y_1!4_2!2 - x_1!4 - x_2!2 >= -1
 idk_0!8!1: y_1!4_2!2 - x_1!4 <= 0
 idk_0!8!2: y_1!4_2!2 - x_2!2 <= 0
 sum_0!9: y_1!1_2!3 - x_1!1 - x_2!3 >= -1
 idk_0!9!1: y_1!1_2!3 - x_1!1 <= 0
 idk_0!9!2: y_1!1_2!3 - x_2!3 <= 0
 sum_0!10: y_1!2_2!3 - x_1!2 - x_2!3 >= -1
 idk_0!10!1: y_1!2_2!3 - x_1!2 <= 0
 idk_0!10!2: y_1!2_2!3 - x_2!3 <= 0
 sum_0!11: y_1!3_2!3 - x_1!3 - x_2!3 >= -1
 idk_0!11!1: y_1!3_2!3 - x_1!3 <= 0
 idk_0!11!2: y_1!3_2!3 - x_2!3 <= 0
 sum_0!12: y_1!4_2!3 - x_1!4 - x_2!3 >= -1
 idk_0!12!1: y_1!4_2!3 - x_1!4 <= 0
 idk_0!12!2: y_1!4_2!3 - x_2!3 <= 0
 sum_0!13: y_1!1_2!4 - x_1!1 - x_2!4 >= -1
 idk_0!13!1: y_1!1_2!4 - x_1!1 <= 0
 idk_0!13!2: y_1!1_2!4 - x_2!4 <= 0
 sum_0!14: y_1!2_2!4 - x_1!2 - x_2!4 >= -1
 idk_0!14!1: y_1!2_2!4 - x_1!2 <= 0
 idk_0!14!2: y_1!2_2!4 - x_2!4 <= 0
 sum_0!15: y_1!3_2!4 - x_1!3 - x_2!4 >= -1
 idk_0!15!1: y_1!3_2!4 - x_1!3 <= 0
 idk_0!15!2: y_1!3_2!4 - x_2!4 <= 0
 sum_0!16: y_1!4_2!4 - x_1!4 - x_2!4 >= -1
 idk_0!16!1: y_1!4_2!4 - x_1!4 <= 0
 idk_0!16!2: y_1!4_2!4 - x_2!4 <= 0
 epc_1!1: -12.371882209683548 y_0!1_2!1 -31.146020653851565 y_0!2_2!1 +56.52873919754953 y_0!3_2!1 -31.471369044540353 y_0!4_2!1 -30.048058307502345 y_0!1_2!2 +18.951186401463957 y_0!2_2!2 +1.5049038528364775 y_0!3_2!2 +67.78633269824041 y_0!4_2!2 +89.89297928335193 y_0!1_2!3 -81.52243187191857 y_0!2_2!3 -44.520608321642555 y_0!3_2!3 +34.28432727050122 y_0!4_2!3 +27.39189432961271 y_0!1_2!4 -87.89807622965091 y_0!2_2!4 +55.68446680102605 y_0!3_2!4 +0.18773967696033367 y_0!4_2!4 + lambda_1!1 - mu_1 = 0
 epc_1!2: +74.06064920870296 y_0!1_2!1 -46.86130069129839 y_0!2_2!1 -83.41028873921982 y_0!3_2!1 -35.65252103678185 y_0!4_2!1 -21.00937868473858 y_0!1_2!2 +42.64463205898889 y_0!2_2!2 +91.67159224372463 y_0!3_2!2 +65.64143693043587 y_0!4_2!2 -80.08736865438972 y_0!1_2!3 -69.42971624981084 y_0!2_2!3 +70.690171154355 y_0!3_2!3 +96.29909105378138 y_0!4_2!3 +26.82141565233522 y_0!1_2!4 -11.914271985265358 y_0!2_2!4 +17.209527943395074 y_0!3_2!4 +71.27710150689234 y_0!4_2!4 + lambda_1!2 - mu_1 = 0
 epc_1!3: +70.06897471761093 y_0!1_2!1 -77.10376008911702 y_0!2_2!1 -32.92598020063534 y_0!3_2!1 +57.585794861621764 y_0!4_2!1 +20.752695654034525 y_0!1_2!2 +7.232595425464211 y_0!2_2!2 -42.26878530679086 y_0!3_2!2 -20.559443046391095 y_0!4_2!2 -56.85758839794399 y_0!1_2!3 +43.993148505598526 y_0!2_2!3 +59.9502829937949 y_0!3_2!3 -18.016167105393492 y_0!4_2!3 -32.107661716431195 y_0!1_2!4 -11.669734420933196 y_0!2_2!4 +79.22884829616282 y_0!3_2!4 -72.02955517992349 y_0!4_2!4 + lambda_1!3 - mu_1 = 0
 epc_1!4: -6.327221160568257 y_0!1_2!1 +97.59571092260143 y_0!2_2!1 -99.82080343218622 y_0!3_2!1 +19.38544333884596 y_0!4_2!1 +27.42441088778608 y_0!1_2!2 +53.985328836266774 y_0!2_2!2 +45.62852942726474 y_0!3_2!2 +87.73294614986497 y_0!4_2!2 +10.62291924787506 y_0!1_2!3 +70.05775646258803 y_0!2_2!3 +17.887602903266185 y_0!3_2!3 +84.42361122728391 y_0!4_2!3 +0.004295464719831443 y_0!1_2!4 +43.71038748752349 y_0!2_2!4 +96.01716592881232 y_0!3_2!4 +97.82224259515698 y_0!4_2!4 + lambda_1!4 - mu_1 = 0
 dc_1: x_1!1 + x_1!2 + x_1!3 + x_1!4 = 1
 bc_1!1: lambda_1!1 +297.6430460273432 x_1!1 <= 297.6430460273432
 bc_1!2: lambda_1!2 +297.6430460273432 x_1!2 <= 297.6430460273432
 bc_1!3: lambda_1!3 +297.6430460273432 x_1!3 <= 297.6430460273432
 bc_1!4: lambda_1!4 +297.6430460273432 x_1!4 <= 297.6430460273432
 sum_1!1: y_0!1_2!1 - x_0!1 - x_2!1 >= -1
 idk_1!1!0: y_0!1_2!1 - x_0!1 <= 0
 idk_1!1!2: y_0!1_2!1 - x_2!1 <= 0
 sum_1!2: y_0!2_2!1 - x_0!2 - x_2!1 >= -1
 idk_1!2!0: y_0!2_2!1 - x_0!2 <= 0
 idk_1!2!2: y_0!2_2!1 - x_2!1 <= 0
 sum_1!3: y_0!3_2!1 - x_0!3 - x_2!1 >= -1
 idk_1!3!0: y_0!3_2!1 - x_0!3 <= 0
 idk_1!3!2: y_0!3_2!1 - x_2!1 <= 0
 sum_1!4: y_0!4_2!1 - x_0!4 - x_2!1 >= -1
 idk_1!4!0: y_0!4_2!1 - x_0!4 <= 0
 idk_1!4!2: y_0!4_2!1 - x_2!1 <= 0
 sum_1!5: y_0!1_2!2 - x_0!1 - x_2!2 >= -1
 idk_1!5!0: y_0!1_2!2 - x_0!1 <= 0
 idk_1!5!2: y_0!1_2!2 - x_2!2 <= 0
 sum_1!6: y_0!2_2!2 - x_0!2 - x_2!2 >= -1
 idk_1!6!0: y_0!2_2!2 - x_0!2 <= 0
 idk_1!6!2: y_0!2_2!2 - x_2!2 <= 0
 sum_1!7: y_0!3_2!2 - x_0!3 - x_2!2 >= -1
 idk_1!7!0: y_0!3_2!2 - x_0!3 <= 0
 idk_1!7!2: y_0!3_2!2 - x_2!2 <= 0
 sum_1!8: y_0!4_2!2 - x_0!4 - x_2!2 >= -1
 idk_1!8!0: y_0!4_2!2 - x_0!4 <= 0
 idk_1!8!2: y_0!4_2!2 - x_2!2 <= 0
 sum_1!9: y_0!1_2!3 - x_0!1 - x_2!3 >= -1
 idk_1!9!0: y_0!1_2!3 - x_0!1 <= 0
 idk_1!9!2: y_0!1_2!3 - x_2!3 <= 0
 sum_1!10: y_0!2_2!3 - x_0!2 - x_2!3 >= -1
 idk_1!10!0: y_0!2_2!3 - x_0!2 <= 0
 idk_1!10!2: y_0!2_2!3 - x_2!3 <= 0
 sum_1!11: y_0!3_2!3 - x_0!3 - x_2!3 >= -1
 idk_1!11!0: y_0!3_2!3 - x_0!3 <= 0
 idk_1!11!2: y_0!3_2!3 - x_2!3 <= 0
 sum_1!12: y_0!4_2!3 - x_0!4 - x_2!3 >= -1
 idk_1!12!0: y_0!4_2!3 - x_0!4 <= 0
 idk_1!12!2: y_0!4_2!3 - x_2!3 <= 0
 sum_1!13: y_0!1_2!4 - x_0!1 - x_2!4 >= -1
 idk_1!13!0: y_0!1_2!4 - x_0!1 <= 0
 idk_1!13!2: y_0!1_2!4 - x_2!4 <= 0
 sum_1!14: y_0!2_2!4 - x_0!2 - x_2!4 >= -1
 idk_1!14!0: y_0!2_2!4 - x_0!2 <= 0
 idk_1!14!2: y_0!2_2!4 - x_2!4 <= 0
 sum_1!15: y_0!3_2!4 - x_0!3 - x_2!4 >= -1
 idk_1!15!0: y_0!3_2!4 - x_0!3 <= 0
 idk_1!15!2: y_0!3_2!4 - x_2!4 <= 0
 sum_1!16: y_0!4_2!4 - x_0!4 - x_2!4 >= -1
 idk_1!16!0: y_0!4_2!4 - x_0!4 <= 0
 idk_1!16!2: y_0!4_2!4 - x_2!4 <= 0
 epc_2!1: +97.82989259657381 y_0!1_1!1 +75.8015533188194 y_0!2_1!1 -8.37825309138968 y_0!3_1!1 +15.774477479441344 y_0!4_1!1 +32.31021199457959 y_0!1_1!2 +28.142768794184633 y_0!2_1!2 +36.49306354483136 y_0!3_1!2 -74.8252637868211 y_0!4_1!2 -22.469247489360725 y_0!1_1!3 -36.42593276256203 y_0!2_1!3 +16.38170905917235 y_0!3_1!3 +58.88738011034698 y_0!4_1!3 -39.93983515120099 y_0!1_1!4 +63.46960346043778 y_0!2_1!4 +89.28191362303508 y_0!3_1!4 +73.98259211902533 y_0!4_1!4 + lambda_2!1 - mu_2 = 0
 epc_2!2: +94.93550704224836 y_0!1_1!1 +80.71037437340266 y_0!2_1!1 -90.82792216316824 y_0!3_1!1 +55.698230273585295 y_0!4_1!1 -30.846481471510742 y_0!1_1!2 -6.192833339672731 y_0!2_1!2 -47.779899317588324 y_0!3_1!2 -26.458842479327018 y_0!4_1!2 -52.808769432632666 y_0!1_1!3 +55.64647953205392 y_0!2_1!3 -61.16915185277734 y_0!3_1!3 +59.07152395453892 y_0!4_1!3 +76.69917580173302 y_0!1_1!4 +77.35630039535789 y_0!2_1!4 -44.44196306688284 y_0!3_1!4 +64.71443279754547 y_0!4_1!4 + lambda_2!2 - mu_2 = 0
 epc_2!3: -33.544154127181685 y_0!1_1!1 -69.82869811916643 y_0!2_1!1 +84.223037638801 y_0!3_1!1 -60.298650306936175 y_0!4_1!1 -28.632673776643628 y_0!1_1!2 -90.69004314281777 y_0!2_1!2 -82.34658784584947 y_0!3_1!2 +54.75129044154022 y_0!4_1!2 +50.74131883939708 y_0!1_1!3 -16.241129763625153 y_0!2_1!3 +82.27440562814931 y_0!3_1!3 -78.64023921355887 y_0!4_1!3 -33.73979535101046 y_0!1_1!4 +54.492296582625386 y_0!2_1!4 -2.6432373973821655 y_0!3_1!4 -15.428814849058895 y_0!4_1!4 + lambda_2!3 - mu_2 = 0
 epc_2!4: +55.02290885432549 y_0!1_1!1 -38.9621783451426 y_0!2_1!1 -20.955262291397588 y_0!3_1!1 -80.13171059049074 y_0!4_1!1 +50.720835839768995 y_0!1_1!2 -87.56808883115863 y_0!2_1!2 +44.358371030395375 y_0!3_1!2 -64.68007632347086 y_0!4_1!2 -67.54167084360647 y_0!1_1!3 +73.49175736371635 y_0!2_1!3 -13.815621676599065 y_0!3_1!3 +69.38636176729608 y_0!4_1!3 -44.07650990653853 y_0!1_1!4 +10.962854599321645 y_0!2_1!4 +74.84043527178477 y_0!3_1!4 -17.210828048646903 y_0!4_1!4 + lambda_2!4 - mu_2 = 0
 dc_2: x_2!1 + x_2!2 + x_2!3 + x_2!4 = 1
 bc_2!1: lambda_2!1 +297.6430460273432 x_2!1 <= 297.6430460273432
 bc_2!2: lambda_2!2 +297.6430460273432 x_2!2 <= 297.6430460273432
 bc_2!3: lambda_2!3 +297.6430460273432 x_2!3 <= 297.6430460273432
 bc_2!4: lambda_2!4 +297.6430460273432 x_2!4 <= 297.6430460273432
 sum_2!1: y_0!1_1!1 - x_0!1 - x_1!1 >= -1
 idk_2!1!0: y_0!1_1!1 - x_0!1 <= 0
 idk_2!1!1: y_0!1_1!1 - x_1!1 <= 0
 sum_2!2: y_0!2_1!1 - x_0!2 - x_1!1 >= -1
 idk_2!2!0: y_0!2_1!1 - x_0!2 <= 0
 idk_2!2!1: y_0!2_1!1 - x_1!1 <= 0
 sum_2!3: y_0!3_1!1 - x_0!3 - x_1!1 >= -1
 idk_2!3!0: y_0!3_1!1 - x_0!3 <= 0
 idk_2!3!1: y_0!3_1!1 - x_1!1 <= 0
 sum_2!4: y_0!4_1!1 - x_0!4 - x_1!1 >= -1
 idk_2!4!0: y_0!4_1!1 - x_0!4 <= 0
 idk_2!4!1: y_0!4_1!1 - x_1!1 <= 0
 sum_2!5: y_0!1_1!2 - x_0!1 - x_1!2 >= -1
 idk_2!5!0: y_0!1_1!2 - x_0!1 <= 0
 idk_2!5!1: y_0!1_1!2 - x_1!2 <= 0
 sum_2!6: y_0!2_1!2 - x_0!2 - x_1!2 >= -1
 idk_2!6!0: y_0!2_1!2 - x_0!2 <= 0
 idk_2!6!1: y_0!2_1!2 - x_1!2 <= 0
 sum_2!7: y_0!3_1!2 - x_0!3 - x_1!2 >= -1
 idk_2!7!0: y_0!3_1!2 - x_0!3 <= 0
 idk_2!7!1: y_0!3_1!2 - x_1!2 <= 0
 sum_2!8: y_0!4_1!2 - x_0!4 - x_1!2 >= -1
 idk_2!8!0: y_0!4_1!2 - x_0!4 <= 0
 idk_2!8!1: y_0!4_1!2 - x_1!2 <= 0
 sum_2!9: y_0!1_1!3 - x_0!1 - x_1!3 >= -1
 idk_2!9!0: y_0!1_1!3 - x_0!1 <= 0
 idk_2!9!1: y_0!1_1!3 - x_1!3 <= 0
 sum_2!10: y_0!2_1!3 - x_0!2 - x_1!3 >= -1
 idk_2!10!0: y_0!2_1!3 - x_0!2 <= 0
 idk_2!10!1: y_0!2_1!3 - x_1!3 <= 0
 sum_2!11: y_0!3_1!3 - x_0!3 - x_1!3 >= -1
 idk_2!11!0: y_0!3_1!3 - x_0!3 <= 0
 idk_2!11!1: y_0!3_1!3 - x_1!3 <= 0
 sum_2!12: y_0!4_1!3 - x_0!4 - x_1!3 >= -1
 idk_2!12!0: y_0!4_1!3 - x_0!4 <= 0
 idk_2!12!1: y_0!4_1!3 - x_1!3 <= 0
 sum_2!13: y_0!1_1!4 - x_0!1 - x_1!4 >= -1
 idk_2!13!0: y_0!1_1!4 - x_0!1 <= 0
 idk_2!13!1: y_0!1_1!4 - x_1!4 <= 0
 sum_2!14: y_0!2_1!4 - x_0!2 - x_1!4 >= -1
 idk_2!14!0: y_0!2_1!4 - x_0!2 <= 0
 idk_2!14!1: y_0!2_1!4 - x_1!4 <= 0
 sum_2!15: y_0!3_1!4 - x_0!3 - x_1!4 >= -1
 idk_2!15!0: y_0!3_1!4 - x_0!3 <= 0
 idk_2!15!1: y_0!3_1!4 - x_1!4 <= 0
 sum_2!16: y_0!4_1!4 - x_0!4 - x_1!4 >= -1
 idk_2!16!0: y_0!4_1!4 - x_0!4 <= 0
 idk_2!16!1: y_0!4_1!4 - x_1!4 <= 0
Bounds
 mu_0 free
 mu_1 free
 mu_2 free
Binary
 x_0!1 x_0!2 x_0!3 x_0!4 x_1!1 x_1!2 x_1!3 x_1!4 x_2!1 x_2!2 x_2!3 x_2!4
End
